Solver command line: ['C:\\Program Files\\IBM\\ILOG\\CPLEX_Studio2211\\cplex\\bin\\x64_win64\\cplex.exe']


Welcome to IBM(R) ILOG(R) CPLEX(R) Interactive Optimizer 22.1.1.0
  with Simplex, Mixed Integer & Barrier Optimizers
5725-A06 5725-A29 5724-Y48 5724-Y49 5724-Y54 5724-Y55 5655-Y21
Copyright IBM Corp. 1988, 2022.  All Rights Reserved.

Type 'help' for a list of available commands.
Type 'help' followed by a command name for more
information on commands.

CPLEX> Logfile 'cplex.log' closed.
Logfile 'C:\Users\wangy\Documents\GitHub\re_optimization\result_site_specific\tmp9mqdcvmt.cplex.log' open.
CPLEX> Problem 'C:\Users\wangy\Documents\GitHub\re_optimization\result_site_specific\tmp8oqapic9.pyomo.lp' read.
Read time = 0.30 sec. (9.13 ticks)
CPLEX> Problem name         : C:\Users\wangy\Documents\GitHub\re_optimization\result_site_specific\tmp8oqapic9.pyomo.lp
Objective sense      : Minimize
Variables            :   65769  [Nneg: 35068,  Free: 8792,  Binary: 9,
                                 Other: 21900]
Objective nonzeros   :      17
Linear constraints   :   87665  [Less: 46741,  Greater: 5,  Equal: 40919]
  Nonzeros           :  225082
  RHS nonzeros       :    3793

Variables            : Min LB: 0.000000         Max UB: 1.000000       
Objective nonzeros   : Min   : 1.000000         Max   : 1.000000       
Linear constraints   :
  Nonzeros           : Min   : 0.001277850      Max   : 100000.0       
  RHS nonzeros       : Min   : 0.01800000       Max   : 100000.0       
CPLEX> Version identifier: 22.1.1.0 | 2022-11-27 | 9160aff4d
Tried aggregator 3 times.
MIP Presolve eliminated 52561 rows and 32118 columns.
Aggregator did 10610 substitutions.
Reduced MIP has 24494 rows, 23041 columns, and 73628 nonzeros.
Reduced MIP has 5 binaries, 0 generals, 0 SOSs, and 0 indicators.
Presolve time = 0.20 sec. (226.16 ticks)
Found incumbent of value 320656.256804 after 0.31 sec. (326.25 ticks)
Probing time = 0.00 sec. (1.29 ticks)
Tried aggregator 1 time.
Detecting symmetries...
Reduced MIP has 24494 rows, 23041 columns, and 73628 nonzeros.
Reduced MIP has 5 binaries, 0 generals, 0 SOSs, and 0 indicators.
Presolve time = 0.05 sec. (46.84 ticks)
Probing time = 0.02 sec. (1.19 ticks)
MIP emphasis: balance optimality and feasibility.
MIP search method: dynamic search.
Parallel mode: deterministic, using up to 16 threads.
Root relaxation solution time = 1.23 sec. (889.09 ticks)

        Nodes                                         Cuts/
   Node  Left     Objective  IInf  Best Integer    Best Bound    ItCnt     Gap

*     0+    0                       320656.2568   -13087.7256           104.08%
      0     0    11571.6092     1   320656.2568    11571.6092       66   96.39%
*     0+    0                        13176.2281    11571.6092            12.18%
*     0+    0                        12320.0263    11571.6092             6.07%
      0     0        cutoff          12320.0263                    662    0.00%
Elapsed time = 1.95 sec. (1763.46 ticks, tree = 0.01 MB, solutions = 3)

Root node processing (before b&c):
  Real time             =    1.97 sec. (1766.65 ticks)
Parallel b&c, 16 threads:
  Real time             =    0.00 sec. (0.00 ticks)
  Sync time (average)   =    0.00 sec.
  Wait time (average)   =    0.00 sec.
                          ------------
Total (root+branch&cut) =    1.97 sec. (1766.65 ticks)

Solution pool: 3 solutions saved.

MIP - Integer optimal solution:  Objective =  1.2320026266e+04
Solution time =    1.97 sec.  Iterations = 662  Nodes = 0
Deterministic time = 1766.83 ticks  (897.78 ticks/sec)

CPLEX> Incumbent solution written to file 'C:\Users\wangy\Documents\GitHub\re_optimization\result_site_specific\tmprweyniqa.cplex.sol'.
CPLEX> 
